#n wB97x/6-31G* SP

 C2 bond breaking scan

0 1
C 0.0 0.0 0.0
C 0.0 0.0 1000.0


