# scan wB97x/6-31G* NoSymm

 Potential energy surface scan of water

0 1
O
H  1 A
H  1 B 2 104.5


A 0.5 99 0.04040404
B 0.5 99 0.04040404

