# scan wB97x/6-31G* NoSymm

 Title

0 5
O
H  1 A
H  1 B 2 104.5


A 0.5 80 0.05
B 0.5 80 0.05

